
(set-logic HORN)
(define-fun Z_2063 () Int 0)
(define-fun S_473 ((x Int)) Int (+ x 1))
(declare-fun diseqInt (Int Int) Bool)
(declare-fun unS_687 (Int Int) Bool)
(declare-fun isZ_440 (Int) Bool)
(declare-fun isS_440 (Int) Bool)
(assert (forall ((x_55445 Int))
	(unS_687 x_55445 (S_473 x_55445))))
(assert (isZ_440 Z_2063))
(assert (forall ((x_55447 Int))
	(isS_440 (S_473 x_55447))))
(assert (forall ((x_55448 Int))
	(diseqInt Z_2063 (S_473 x_55448))))
(assert (forall ((x_55449 Int))
	(diseqInt (S_473 x_55449) Z_2063)))
(assert (forall ((x_55450 Int) (x_55451 Int))
	(=> (diseqInt x_55450 x_55451) (diseqInt (S_473 x_55450) (S_473 x_55451)))))
(declare-fun add_369 (Int Int Int) Bool)
(declare-fun minus_364 (Int Int Int) Bool)
(declare-fun le_343 (Int Int) Bool)
(declare-fun ge_343 (Int Int) Bool)
(declare-fun lt_363 (Int Int) Bool)
(declare-fun gt_346 (Int Int) Bool)
(declare-fun mult_343 (Int Int Int) Bool)
(declare-fun div_343 (Int Int Int) Bool)
(declare-fun mod_345 (Int Int Int) Bool)
(assert (forall ((y_2298 Int))
	(add_369 y_2298 Z_2063 y_2298)))
(assert (forall ((x_55429 Int) (y_2298 Int) (r_416 Int))
	(=> (add_369 r_416 x_55429 y_2298) (add_369 (S_473 r_416) (S_473 x_55429) y_2298))))
(assert (forall ((y_2298 Int))
	(minus_364 Z_2063 Z_2063 y_2298)))
(assert (forall ((x_55429 Int) (y_2298 Int) (r_416 Int))
	(=> (minus_364 r_416 x_55429 y_2298) (minus_364 (S_473 r_416) (S_473 x_55429) y_2298))))
(assert (forall ((y_2298 Int))
	(le_343 Z_2063 y_2298)))
(assert (forall ((x_55429 Int) (y_2298 Int))
	(=> (le_343 x_55429 y_2298) (le_343 (S_473 x_55429) (S_473 y_2298)))))
(assert (forall ((y_2298 Int))
	(ge_343 y_2298 Z_2063)))
(assert (forall ((x_55429 Int) (y_2298 Int))
	(=> (ge_343 x_55429 y_2298) (ge_343 (S_473 x_55429) (S_473 y_2298)))))
(assert (forall ((y_2298 Int))
	(lt_363 Z_2063 (S_473 y_2298))))
(assert (forall ((x_55429 Int) (y_2298 Int))
	(=> (lt_363 x_55429 y_2298) (lt_363 (S_473 x_55429) (S_473 y_2298)))))
(assert (forall ((y_2298 Int))
	(gt_346 (S_473 y_2298) Z_2063)))
(assert (forall ((x_55429 Int) (y_2298 Int))
	(=> (gt_346 x_55429 y_2298) (gt_346 (S_473 x_55429) (S_473 y_2298)))))
(assert (forall ((y_2298 Int))
	(mult_343 Z_2063 Z_2063 y_2298)))
(assert (forall ((x_55429 Int) (y_2298 Int) (r_416 Int) (z_2064 Int))
	(=> (and (mult_343 r_416 x_55429 y_2298) (add_369 z_2064 r_416 y_2298)) (mult_343 z_2064 (S_473 x_55429) y_2298))))
(assert (forall ((x_55429 Int) (y_2298 Int))
	(=> (lt_363 x_55429 y_2298) (div_343 Z_2063 x_55429 y_2298))))
(assert (forall ((x_55429 Int) (y_2298 Int) (r_416 Int) (z_2064 Int))
	(=> (and (ge_343 x_55429 y_2298) (minus_364 z_2064 x_55429 y_2298) (div_343 r_416 z_2064 y_2298)) (div_343 (S_473 r_416) x_55429 y_2298))))
(assert (forall ((x_55429 Int) (y_2298 Int))
	(=> (lt_363 x_55429 y_2298) (mod_345 x_55429 x_55429 y_2298))))
(assert (forall ((x_55429 Int) (y_2298 Int) (r_416 Int) (z_2064 Int))
	(=> (and (ge_343 x_55429 y_2298) (minus_364 z_2064 x_55429 y_2298) (mod_345 r_416 z_2064 y_2298)) (mod_345 r_416 x_55429 y_2298))))
(declare-datatypes ((list_245 0)) (((nil_275) (cons_245 (head_490 Int) (tail_490 list_245)))))
(declare-fun diseqlist_245 (list_245 list_245) Bool)
(declare-fun head_491 (Int list_245) Bool)
(declare-fun tail_491 (list_245 list_245) Bool)
(declare-fun isnil_275 (list_245) Bool)
(declare-fun iscons_245 (list_245) Bool)
(assert (forall ((x_55431 Int) (x_55432 list_245))
	(head_491 x_55431 (cons_245 x_55431 x_55432))))
(assert (forall ((x_55431 Int) (x_55432 list_245))
	(tail_491 x_55432 (cons_245 x_55431 x_55432))))
(assert (isnil_275 nil_275))
(assert (forall ((x_55434 Int) (x_55435 list_245))
	(iscons_245 (cons_245 x_55434 x_55435))))
(assert (forall ((x_55436 Int) (x_55437 list_245))
	(diseqlist_245 nil_275 (cons_245 x_55436 x_55437))))
(assert (forall ((x_55438 Int) (x_55439 list_245))
	(diseqlist_245 (cons_245 x_55438 x_55439) nil_275)))
(assert (forall ((x_55440 Int) (x_55441 list_245) (x_55442 Int) (x_55443 list_245))
	(=> (diseqInt x_55440 x_55442) (diseqlist_245 (cons_245 x_55440 x_55441) (cons_245 x_55442 x_55443)))))
(assert (forall ((x_55440 Int) (x_55441 list_245) (x_55442 Int) (x_55443 list_245))
	(=> (diseqlist_245 x_55441 x_55443) (diseqlist_245 (cons_245 x_55440 x_55441) (cons_245 x_55442 x_55443)))))
(declare-fun x_55413 (list_245 list_245 list_245) Bool)
(assert (forall ((x_55418 list_245) (z_2062 Int) (xs_658 list_245) (y_2295 list_245))
	(=> (x_55413 x_55418 xs_658 y_2295) (x_55413 (cons_245 z_2062 x_55418) (cons_245 z_2062 xs_658) y_2295))))
(assert (forall ((x_55419 list_245))
	(x_55413 x_55419 nil_275 x_55419)))
(declare-fun rev_11 (list_245 list_245) Bool)
(assert (forall ((x_55420 list_245) (x_55421 list_245) (y_2296 Int) (xs_659 list_245))
	(=> (and (rev_11 x_55421 xs_659) (x_55413 x_55420 x_55421 (cons_245 y_2296 nil_275))) (rev_11 x_55420 (cons_245 y_2296 xs_659)))))
(assert (rev_11 nil_275 nil_275))
(assert (forall ((x_55424 list_245) (x_55425 list_245) (x_55426 list_245) (x_55427 list_245) (x_55428 list_245) (x_55416 list_245) (y_2297 list_245))
	(=> (and true (diseqlist_245 x_55426 x_55428) (rev_11 x_55424 x_55416) (x_55413 x_55425 x_55424 y_2297) (rev_11 x_55426 x_55425) (rev_11 x_55427 y_2297) (x_55413 x_55428 x_55427 x_55416)) false)))
(check-sat)
